(set-logic QF_UF)
(declare-fun A0 () Bool)
(declare-fun A1 () Bool)
(declare-fun A2 () Bool)
(declare-fun A3 () Bool)
(declare-fun A4 () Bool)
(declare-fun A5 () Bool)
(declare-fun A6 () Bool)
(declare-fun A7 () Bool)
(declare-fun A8 () Bool)
(declare-fun A9 () Bool)
(declare-fun A10 () Bool)
(declare-fun A11 () Bool)
(declare-fun A12 () Bool)
(declare-fun A13 () Bool)
(declare-fun A14 () Bool)
(declare-fun A15 () Bool)
(declare-fun A16 () Bool)
(declare-fun A17 () Bool)
(declare-fun A18 () Bool)
(declare-fun A19 () Bool)
(declare-fun A20 () Bool)
(declare-fun A21 () Bool)
(declare-fun A22 () Bool)
(declare-fun A23 () Bool)
(declare-fun A24 () Bool)
(assert (let ((.def_0 (not A13))) (let ((.def_1 (and A21 .def_0))) (let ((.def_2 (not A20))) (let ((.def_3 (or .def_2 A24))) (let ((.def_4 (or .def_3 .def_1))) (let ((.def_5 (not A0))) (let ((.def_6 (= .def_5 A15))) (let ((.def_7 (not A4))) (let ((.def_8 (not A7))) (let ((.def_9 (and .def_8 .def_7))) (let ((.def_10 (or .def_9 .def_6))) (let ((.def_11 (or .def_10 .def_4))) (let ((.def_12 (not A9))) (let ((.def_13 (and .def_12 A5))) (let ((.def_14 (and A19 A13))) (let ((.def_15 (and .def_14 .def_13))) (let ((.def_16 (not .def_15))) (let ((.def_17 (not A17))) (let ((.def_18 (and .def_17 A16))) (let ((.def_19 (not .def_18))) (let ((.def_20 (not A15))) (let ((.def_21 (not A5))) (let ((.def_22 (and .def_21 .def_20))) (let ((.def_23 (not .def_22))) (let ((.def_24 (or .def_23 .def_19))) (let ((.def_25 (and .def_24 .def_16))) (let ((.def_26 (not .def_25))) (let ((.def_27 (and .def_26 .def_11))) (let ((.def_28 (or .def_17 .def_5))) (let ((.def_29 (not A2))) (let ((.def_30 (and A4 .def_29))) (let ((.def_31 (not .def_30))) (let ((.def_32 (or .def_31 .def_28))) (let ((.def_33 (not A8))) (let ((.def_34 (or .def_33 .def_20))) (let ((.def_35 (not .def_34))) (let ((.def_36 (not A1))) (let ((.def_37 (and .def_36 A11))) (let ((.def_38 (or .def_37 .def_35))) (let ((.def_39 (not .def_38))) (let ((.def_40 (or .def_39 .def_32))) (let ((.def_41 (not A22))) (let ((.def_42 (not A21))) (let ((.def_43 (or .def_42 .def_41))) (let ((.def_44 (not .def_43))) (let ((.def_45 (not A12))) (let ((.def_46 (or A0 .def_45))) (let ((.def_47 (and .def_46 .def_44))) (let ((.def_48 (not .def_47))) (let ((.def_49 (= A20 A5))) (let ((.def_50 (or A12 .def_7))) (let ((.def_51 (or .def_50 .def_49))) (let ((.def_52 (or .def_51 .def_48))) (let ((.def_53 (or .def_52 .def_40))) (let ((.def_54 (not .def_53))) (let ((.def_55 (and .def_54 .def_27))) (let ((.def_56 (not .def_55))) (let ((.def_57 (and A24 A19))) (let ((.def_58 (not .def_57))) (let ((.def_59 (and A10 A15))) (let ((.def_60 (or .def_59 .def_58))) (let ((.def_61 (not .def_60))) (let ((.def_62 (or .def_7 A24))) (let ((.def_63 (not .def_62))) (let ((.def_64 (not A11))) (let ((.def_65 (not A24))) (let ((.def_66 (= .def_65 .def_64))) (let ((.def_67 (or .def_66 .def_63))) (let ((.def_68 (not .def_67))) (let ((.def_69 (and .def_68 .def_61))) (let ((.def_70 (not .def_69))) (let ((.def_71 (or A24 .def_7))) (let ((.def_72 (not .def_71))) (let ((.def_73 (or .def_45 .def_64))) (let ((.def_74 (not .def_73))) (let ((.def_75 (and .def_74 .def_72))) (let ((.def_76 (not A23))) (let ((.def_77 (or A16 .def_76))) (let ((.def_78 (not .def_77))) (let ((.def_79 (= A22 A10))) (let ((.def_80 (not .def_79))) (let ((.def_81 (or .def_80 .def_78))) (let ((.def_82 (not .def_81))) (let ((.def_83 (and .def_82 .def_75))) (let ((.def_84 (not .def_83))) (let ((.def_85 (and .def_84 .def_70))) (let ((.def_86 (not .def_85))) (let ((.def_87 (not A14))) (let ((.def_88 (= A0 .def_87))) (let ((.def_89 (not .def_88))) (let ((.def_90 (or .def_17 .def_2))) (let ((.def_91 (not .def_90))) (let ((.def_92 (and .def_91 .def_89))) (let ((.def_93 (not .def_92))) (let ((.def_94 (= A13 A18))) (let ((.def_95 (not .def_94))) (let ((.def_96 (or .def_42 .def_0))) (let ((.def_97 (not .def_96))) (let ((.def_98 (and .def_97 .def_95))) (let ((.def_99 (not .def_98))) (let ((.def_100 (or .def_99 .def_93))) (let ((.def_101 (not .def_100))) (let ((.def_102 (= .def_29 A18))) (let ((.def_103 (not .def_102))) (let ((.def_104 (or A23 A8))) (let ((.def_105 (and .def_104 .def_103))) (let ((.def_106 (not .def_105))) (let ((.def_107 (= A1 A24))) (let ((.def_108 (or A11 A16))) (let ((.def_109 (not .def_108))) (let ((.def_110 (and .def_109 .def_107))) (let ((.def_111 (or .def_110 .def_106))) (let ((.def_112 (or .def_111 .def_101))) (let ((.def_113 (= .def_112 .def_86))) (let ((.def_114 (and .def_113 .def_56))) (let ((.def_115 (not A3))) (let ((.def_116 (or .def_12 .def_115))) (let ((.def_117 (not .def_116))) (let ((.def_118 (or .def_5 .def_33))) (let ((.def_119 (or .def_118 .def_117))) (let ((.def_120 (and .def_7 A3))) (let ((.def_121 (or .def_17 A19))) (let ((.def_122 (not .def_121))) (let ((.def_123 (= .def_122 .def_120))) (let ((.def_124 (or .def_123 .def_119))) (let ((.def_125 (not .def_124))) (let ((.def_126 (= .def_33 A9))) (let ((.def_127 (not .def_126))) (let ((.def_128 (or A11 A15))) (let ((.def_129 (and .def_128 .def_127))) (let ((.def_130 (or .def_42 A1))) (let ((.def_131 (or A0 A7))) (let ((.def_132 (not .def_131))) (let ((.def_133 (or .def_132 .def_130))) (let ((.def_134 (and .def_133 .def_129))) (let ((.def_135 (and .def_134 .def_125))) (let ((.def_136 (not .def_135))) (let ((.def_137 (or A22 A12))) (let ((.def_138 (not .def_137))) (let ((.def_139 (and .def_41 .def_36))) (let ((.def_140 (not .def_139))) (let ((.def_141 (or .def_140 .def_138))) (let ((.def_142 (not .def_141))) (let ((.def_143 (and A1 .def_36))) (let ((.def_144 (not .def_143))) (let ((.def_145 (= .def_0 A0))) (let ((.def_146 (or .def_145 .def_144))) (let ((.def_147 (or .def_146 .def_142))) (let ((.def_148 (not .def_147))) (let ((.def_149 (or .def_5 A18))) (let ((.def_150 (and A2 .def_17))) (let ((.def_151 (and .def_150 .def_149))) (let ((.def_152 (not .def_151))) (let ((.def_153 (and A7 A11))) (let ((.def_154 (not .def_153))) (let ((.def_155 (and A22 A5))) (let ((.def_156 (not .def_155))) (let ((.def_157 (or .def_156 .def_154))) (let ((.def_158 (or .def_157 .def_152))) (let ((.def_159 (not .def_158))) (let ((.def_160 (or .def_159 .def_148))) (let ((.def_161 (not .def_160))) (let ((.def_162 (or .def_161 .def_136))) (let ((.def_163 (and A21 .def_33))) (let ((.def_164 (not .def_163))) (let ((.def_165 (and A18 .def_64))) (let ((.def_166 (not .def_165))) (let ((.def_167 (or .def_166 .def_164))) (let ((.def_168 (not .def_167))) (let ((.def_169 (and .def_45 .def_29))) (let ((.def_170 (not .def_169))) (let ((.def_171 (and .def_87 A18))) (let ((.def_172 (not .def_171))) (let ((.def_173 (or .def_172 .def_170))) (let ((.def_174 (= .def_173 .def_168))) (let ((.def_175 (not .def_174))) (let ((.def_176 (or .def_29 .def_7))) (let ((.def_177 (not .def_176))) (let ((.def_178 (= .def_0 A9))) (let ((.def_179 (and .def_178 .def_177))) (let ((.def_180 (not .def_179))) (let ((.def_181 (or A5 .def_5))) (let ((.def_182 (and .def_65 A2))) (let ((.def_183 (not .def_182))) (let ((.def_184 (and .def_183 .def_181))) (let ((.def_185 (not .def_184))) (let ((.def_186 (and .def_185 .def_180))) (let ((.def_187 (not .def_186))) (let ((.def_188 (or .def_187 .def_175))) (let ((.def_189 (not .def_188))) (let ((.def_190 (or A18 A5))) (let ((.def_191 (= .def_36 .def_29))) (let ((.def_192 (or .def_191 .def_190))) (let ((.def_193 (and A20 A9))) (let ((.def_194 (not A16))) (let ((.def_195 (or A10 .def_194))) (let ((.def_196 (or .def_195 .def_193))) (let ((.def_197 (not .def_196))) (let ((.def_198 (and .def_197 .def_192))) (let ((.def_199 (and A11 .def_2))) (let ((.def_200 (and A14 A10))) (let ((.def_201 (or .def_200 .def_199))) (let ((.def_202 (and A0 A14))) (let ((.def_203 (not A19))) (let ((.def_204 (or .def_203 .def_87))) (let ((.def_205 (not .def_204))) (let ((.def_206 (= .def_205 .def_202))) (let ((.def_207 (and .def_206 .def_201))) (let ((.def_208 (or .def_207 .def_198))) (let ((.def_209 (not .def_208))) (let ((.def_210 (and .def_209 .def_189))) (let ((.def_211 (not .def_210))) (let ((.def_212 (and .def_211 .def_162))) (let ((.def_213 (not .def_212))) (let ((.def_214 (or .def_213 .def_114))) (let ((.def_215 (= A22 A18))) (let ((.def_216 (and A4 A16))) (let ((.def_217 (not .def_216))) (let ((.def_218 (and .def_217 .def_215))) (let ((.def_219 (and A6 A0))) (let ((.def_220 (or .def_5 A9))) (let ((.def_221 (and .def_220 .def_219))) (let ((.def_222 (or .def_221 .def_218))) (let ((.def_223 (= A18 A11))) (let ((.def_224 (and A17 A21))) (let ((.def_225 (and .def_224 .def_223))) (let ((.def_226 (= A8 .def_8))) (let ((.def_227 (not .def_226))) (let ((.def_228 (or A7 .def_194))) (let ((.def_229 (not .def_228))) (let ((.def_230 (= .def_229 .def_227))) (let ((.def_231 (= .def_230 .def_225))) (let ((.def_232 (not .def_231))) (let ((.def_233 (= .def_232 .def_222))) (let ((.def_234 (or .def_12 A19))) (let ((.def_235 (or .def_29 .def_33))) (let ((.def_236 (not .def_235))) (let ((.def_237 (or .def_236 .def_234))) (let ((.def_238 (not A18))) (let ((.def_239 (or .def_21 .def_238))) (let ((.def_240 (not .def_239))) (let ((.def_241 (or A11 .def_64))) (let ((.def_242 (not .def_241))) (let ((.def_243 (or .def_242 .def_240))) (let ((.def_244 (and .def_243 .def_237))) (let ((.def_245 (not .def_244))) (let ((.def_246 (or .def_41 .def_87))) (let ((.def_247 (or A20 A18))) (let ((.def_248 (and .def_247 .def_246))) (let ((.def_249 (not .def_248))) (let ((.def_250 (or A4 .def_12))) (let ((.def_251 (= A1 A14))) (let ((.def_252 (or .def_251 .def_250))) (let ((.def_253 (or .def_252 .def_249))) (let ((.def_254 (not .def_253))) (let ((.def_255 (or .def_254 .def_245))) (let ((.def_256 (= .def_255 .def_233))) (let ((.def_257 (not .def_256))) (let ((.def_258 (and .def_65 A12))) (let ((.def_259 (or A7 .def_33))) (let ((.def_260 (not .def_259))) (let ((.def_261 (or .def_260 .def_258))) (let ((.def_262 (and A8 .def_238))) (let ((.def_263 (not A10))) (let ((.def_264 (= A4 .def_263))) (let ((.def_265 (not .def_264))) (let ((.def_266 (or .def_265 .def_262))) (let ((.def_267 (or .def_266 .def_261))) (let ((.def_268 (not .def_267))) (let ((.def_269 (or A1 .def_20))) (let ((.def_270 (not .def_269))) (let ((.def_271 (not A6))) (let ((.def_272 (= .def_271 .def_0))) (let ((.def_273 (not .def_272))) (let ((.def_274 (and .def_273 .def_270))) (let ((.def_275 (not .def_274))) (let ((.def_276 (= .def_87 .def_271))) (let ((.def_277 (and .def_0 A3))) (let ((.def_278 (or .def_277 .def_276))) (let ((.def_279 (and .def_278 .def_275))) (let ((.def_280 (not .def_279))) (let ((.def_281 (or .def_280 .def_268))) (let ((.def_282 (not .def_281))) (let ((.def_283 (= .def_45 A10))) (let ((.def_284 (not .def_283))) (let ((.def_285 (or .def_17 A11))) (let ((.def_286 (and .def_285 .def_284))) (let ((.def_287 (or .def_115 .def_12))) (let ((.def_288 (or A23 .def_238))) (let ((.def_289 (and .def_288 .def_287))) (let ((.def_290 (and .def_289 .def_286))) (let ((.def_291 (or A15 .def_263))) (let ((.def_292 (or .def_271 A6))) (let ((.def_293 (or .def_292 .def_291))) (let ((.def_294 (not .def_293))) (let ((.def_295 (or A11 A8))) (let ((.def_296 (not .def_295))) (let ((.def_297 (or A1 A12))) (let ((.def_298 (or .def_297 .def_296))) (let ((.def_299 (or .def_298 .def_294))) (let ((.def_300 (or .def_299 .def_290))) (let ((.def_301 (or .def_300 .def_282))) (let ((.def_302 (and .def_301 .def_257))) (let ((.def_303 (and .def_64 .def_41))) (let ((.def_304 (and .def_64 A10))) (let ((.def_305 (and .def_304 .def_303))) (let ((.def_306 (or .def_65 A19))) (let ((.def_307 (and A0 .def_203))) (let ((.def_308 (not .def_307))) (let ((.def_309 (or .def_308 .def_306))) (let ((.def_310 (not .def_309))) (let ((.def_311 (and .def_310 .def_305))) (let ((.def_312 (or A10 A3))) (let ((.def_313 (not .def_312))) (let ((.def_314 (= .def_238 A6))) (let ((.def_315 (or .def_314 .def_313))) (let ((.def_316 (and A3 A11))) (let ((.def_317 (or .def_271 .def_64))) (let ((.def_318 (not .def_317))) (let ((.def_319 (or .def_318 .def_316))) (let ((.def_320 (not .def_319))) (let ((.def_321 (or .def_320 .def_315))) (let ((.def_322 (and .def_321 .def_311))) (let ((.def_323 (or A15 A0))) (let ((.def_324 (not .def_323))) (let ((.def_325 (or A13 .def_64))) (let ((.def_326 (or .def_325 .def_324))) (let ((.def_327 (or A9 .def_17))) (let ((.def_328 (or A0 .def_29))) (let ((.def_329 (and .def_328 .def_327))) (let ((.def_330 (or .def_329 .def_326))) (let ((.def_331 (not .def_330))) (let ((.def_332 (and .def_29 .def_17))) (let ((.def_333 (not .def_332))) (let ((.def_334 (and .def_8 .def_238))) (let ((.def_335 (and .def_334 .def_333))) (let ((.def_336 (not .def_335))) (let ((.def_337 (or A24 A22))) (let ((.def_338 (not .def_337))) (let ((.def_339 (= .def_263 .def_64))) (let ((.def_340 (not .def_339))) (let ((.def_341 (or .def_340 .def_338))) (let ((.def_342 (or .def_341 .def_336))) (let ((.def_343 (not .def_342))) (let ((.def_344 (and .def_343 .def_331))) (let ((.def_345 (and .def_344 .def_322))) (let ((.def_346 (not .def_345))) (let ((.def_347 (and A8 A3))) (let ((.def_348 (or .def_115 A11))) (let ((.def_349 (and .def_348 .def_347))) (let ((.def_350 (not .def_349))) (let ((.def_351 (or .def_115 A5))) (let ((.def_352 (not .def_351))) (let ((.def_353 (or .def_5 .def_2))) (let ((.def_354 (= .def_353 .def_352))) (let ((.def_355 (not .def_354))) (let ((.def_356 (or .def_355 .def_350))) (let ((.def_357 (not .def_356))) (let ((.def_358 (and .def_45 A4))) (let ((.def_359 (not .def_358))) (let ((.def_360 (= .def_76 A12))) (let ((.def_361 (or .def_360 .def_359))) (let ((.def_362 (or A16 A21))) (let ((.def_363 (not .def_362))) (let ((.def_364 (or A5 .def_20))) (let ((.def_365 (not .def_364))) (let ((.def_366 (and .def_365 .def_363))) (let ((.def_367 (not .def_366))) (let ((.def_368 (and .def_367 .def_361))) (let ((.def_369 (not .def_368))) (let ((.def_370 (= .def_369 .def_357))) (let ((.def_371 (not .def_370))) (let ((.def_372 (and A4 A8))) (let ((.def_373 (not .def_372))) (let ((.def_374 (= .def_64 A24))) (let ((.def_375 (or .def_374 .def_373))) (let ((.def_376 (not .def_375))) (let ((.def_377 (or A9 .def_12))) (let ((.def_378 (not .def_377))) (let ((.def_379 (or A9 .def_194))) (let ((.def_380 (not .def_379))) (let ((.def_381 (or .def_380 .def_378))) (let ((.def_382 (and .def_381 .def_376))) (let ((.def_383 (not .def_382))) (let ((.def_384 (and A4 .def_17))) (let ((.def_385 (not .def_384))) (let ((.def_386 (and .def_21 A21))) (let ((.def_387 (not .def_386))) (let ((.def_388 (or .def_387 .def_385))) (let ((.def_389 (not .def_388))) (let ((.def_390 (and .def_65 .def_17))) (let ((.def_391 (or A23 A21))) (let ((.def_392 (not .def_391))) (let ((.def_393 (and .def_392 .def_390))) (let ((.def_394 (not .def_393))) (let ((.def_395 (and .def_394 .def_389))) (let ((.def_396 (and .def_395 .def_383))) (let ((.def_397 (not .def_396))) (let ((.def_398 (and .def_397 .def_371))) (let ((.def_399 (and .def_398 .def_346))) (let ((.def_400 (not .def_399))) (let ((.def_401 (and .def_400 .def_302))) (let ((.def_402 (not .def_401))) (let ((.def_403 (and .def_402 .def_214))) (let ((.def_404 (not .def_403))) .def_404))))))))))))))))))))))))))))))))))))))))))))))))))))))))))))))))))))))))))))))))))))))))))))))))))))))))))))))))))))))))))))))))))))))))))))))))))))))))))))))))))))))))))))))))))))))))))))))))))))))))))))))))))))))))))))))))))))))))))))))))))))))))))))))))))))))))))))))))))))))))))))))))))))))))))))))))))))))))))))))))))))))))))))))))))))))))))))))))))))))))))))))))))))))))))))))))))))))))))))))))))))))
(check-sat)
